Route #1: 75
Route #2: 11 65 66 59 14
Route #3: 23 56 43 41 42 64 22 61
Route #4: 47 36 69 71 60 70 20 37 15 57 13
Route #5: 72 10 31 25 55 18 50 24 49
Route #6: 48 5 21 28 62 1 73
Route #7: 7 35 53 38 58 19 54 8
Route #8: 3 44 32 9 39 40
Route #9: 68 30 74 2 29 45 27 52
Route #10: 12 17 51 16 63 33 6
Route #11: 4 34 46 67 26
Cost 897.3596302174029